ioscaa1@Bogdan:~$ nano b172b4c218f1e44e205575d2b51e82c4.cnf
ioscaa1@Bogdan:~$ minisat b172b4c218f1e44e205575d2b51e82c4.cnf b172b4c218f1e44e205575d2b51e82c4.out
WARNING: for repeatability, setting FPU to use double precision
============================[ Problem Statistics ]=============================
|                                                                             |
|  Number of variables:           757                                         |
|  Number of clauses:           27689                                         |
|  Parse time:                   0.01 s                                       |
|  Eliminated clauses:           0.00 Mb                                      |
|  Simplification time:          0.06 s                                       |
|                                                                             |
============================[ Search Statistics ]==============================
| Conflicts |          ORIGINAL         |          LEARNT          | Progress |
|           |    Vars  Clauses Literals |    Limit  Clauses Lit/Cl |          |
===============================================================================
|       100 |     598    26932   105235 |     9875      100     32 |  0.000 % |
|       250 |     598    26932   105235 |    10862      250     28 |  0.000 % |
|       475 |     598    26932   105235 |    11948      475     33 |  0.000 % |
|       812 |     598    26932   105235 |    13143      812     42 |  0.000 % |
|      1318 |     598    26932   105235 |    14458     1318     46 |  0.000 % |
|      2077 |     598    26932   105235 |    15903     2077     50 |  0.000 % |
|      3216 |     598    26932   105235 |    17494     3216     53 |  0.000 % |
|      4924 |     598    26932   105235 |    19243     4924     54 |  0.000 % |
|      7486 |     598    26932   105235 |    21168     7486     55 |  0.000 % |
|     11330 |     598    26932   105235 |    23284    11330     56 |  0.000 % |
|     17096 |     598    26932   105235 |    25613    17096     55 |  0.000 % |
|     25745 |     598    26932   105235 |    28174    12059     51 |  0.000 % |
|     38719 |     598    26932   105235 |    30992    25033     54 |  0.000 % |
|     58180 |     598    26932   105235 |    34091    25831     53 |  0.000 % |
|     87372 |     598    26932   105235 |    37500    13304     45 |  0.000 % |
|    131161 |     598    26932   105235 |    41250    32442     52 |  0.000 % |
|    196845 |     598    26932   105235 |    45375    40034     53 |  0.000 % |
|    295371 |     598    26932   105235 |    49913    41491     56 |  0.000 % |
|    443160 |     598    26932   105235 |    54904    48640     55 |  0.000 % |
|    664843 |     598    26932   105235 |    60395    22205     52 |  0.000 % |
|    997368 |     598    26932   105235 |    66434    29476     54 |  0.001 % |
|   1496156 |     598    26932   105235 |    73077    54886     53 |  0.000 % |
|   2244338 |     598    26932   105235 |    80385    47893     53 |  0.000 % |
|   3366612 |     598    26932   105235 |    88424    72469     51 |  0.000 % |
|   5050023 |     598    26932   105235 |    97266    76894     53 |  0.000 % |
|   7575139 |     598    26932   105235 |   106993    73090     52 |  0.000 % |
|  11362814 |     598    26932   105235 |   117692   102069     51 |  0.000 % |
|  17044326 |     598    26932   105235 |   129462    73914     48 |  0.001 % |
|  25566595 |     598    26932   105235 |   142408    83027     49 |  0.001 % |
|  38349998 |     598    26932   105235 |   156649    63206     51 |  0.000 % |
|  57525103 |     598    26932   105235 |   172314    96396     57 |  0.000 % |
|  86287761 |     598    26932   105235 |   189545    51641     51 |  0.000 % |
| 129431749 |     598    26932   105235 |   208499   151534     52 |  0.000 % |
| 194147731 |     598    26932   105235 |   229349   151031     54 |  0.000 % |
^C===============================================================================
restarts              : 241714
conflicts             : 196410130      (6510 /sec)
decisions             : 287980297      (0.00 % random) (9544 /sec)
propagations          : 10071662994    (333804 /sec)
conflict literals     : 10693077178    (24.82 % deleted)
Memory used           : 313.00 MB
CPU time              : 30172.4 s

INDETERMINATE

